c Counting Principle: 8 divided in parts of size 2.
c Generated with `cnfgen`
c (C) 2012-2018 Massimo Lauria <lauria.massimo@gmail.com>
c https://massimolauria.github.io/cnfgen
c
c COMMAND LINE: cnfgen parity 8
c
p cnf 28 176
-1 -2 0
-1 -3 0
-1 -4 0
-1 -5 0
-1 -6 0
-1 -7 0
-2 -3 0
-2 -4 0
-2 -5 0
-2 -6 0
-2 -7 0
-3 -4 0
-3 -5 0
-3 -6 0
-3 -7 0
-4 -5 0
-4 -6 0
-4 -7 0
-5 -6 0
-5 -7 0
-6 -7 0
1 2 3 4 5 6 7 0
-1 -8 0
-1 -9 0
-1 -10 0
-1 -11 0
-1 -12 0
-1 -13 0
-8 -9 0
-8 -10 0
-8 -11 0
-8 -12 0
-8 -13 0
-9 -10 0
-9 -11 0
-9 -12 0
-9 -13 0
-10 -11 0
-10 -12 0
-10 -13 0
-11 -12 0
-11 -13 0
-12 -13 0
1 8 9 10 11 12 13 0
-2 -8 0
-2 -14 0
-2 -15 0
-2 -16 0
-2 -17 0
-2 -18 0
-8 -14 0
-8 -15 0
-8 -16 0
-8 -17 0
-8 -18 0
-14 -15 0
-14 -16 0
-14 -17 0
-14 -18 0
-15 -16 0
-15 -17 0
-15 -18 0
-16 -17 0
-16 -18 0
-17 -18 0
2 8 14 15 16 17 18 0
-3 -9 0
-3 -14 0
-3 -19 0
-3 -20 0
-3 -21 0
-3 -22 0
-9 -14 0
-9 -19 0
-9 -20 0
-9 -21 0
-9 -22 0
-14 -19 0
-14 -20 0
-14 -21 0
-14 -22 0
-19 -20 0
-19 -21 0
-19 -22 0
-20 -21 0
-20 -22 0
-21 -22 0
3 9 14 19 20 21 22 0
-4 -10 0
-4 -15 0
-4 -19 0
-4 -23 0
-4 -24 0
-4 -25 0
-10 -15 0
-10 -19 0
-10 -23 0
-10 -24 0
-10 -25 0
-15 -19 0
-15 -23 0
-15 -24 0
-15 -25 0
-19 -23 0
-19 -24 0
-19 -25 0
-23 -24 0
-23 -25 0
-24 -25 0
4 10 15 19 23 24 25 0
-5 -11 0
-5 -16 0
-5 -20 0
-5 -23 0
-5 -26 0
-5 -27 0
-11 -16 0
-11 -20 0
-11 -23 0
-11 -26 0
-11 -27 0
-16 -20 0
-16 -23 0
-16 -26 0
-16 -27 0
-20 -23 0
-20 -26 0
-20 -27 0
-23 -26 0
-23 -27 0
-26 -27 0
5 11 16 20 23 26 27 0
-6 -12 0
-6 -17 0
-6 -21 0
-6 -24 0
-6 -26 0
-6 -28 0
-12 -17 0
-12 -21 0
-12 -24 0
-12 -26 0
-12 -28 0
-17 -21 0
-17 -24 0
-17 -26 0
-17 -28 0
-21 -24 0
-21 -26 0
-21 -28 0
-24 -26 0
-24 -28 0
-26 -28 0
6 12 17 21 24 26 28 0
-7 -13 0
-7 -18 0
-7 -22 0
-7 -25 0
-7 -27 0
-7 -28 0
-13 -18 0
-13 -22 0
-13 -25 0
-13 -27 0
-13 -28 0
-18 -22 0
-18 -25 0
-18 -27 0
-18 -28 0
-22 -25 0
-22 -27 0
-22 -28 0
-25 -27 0
-25 -28 0
-27 -28 0
7 13 18 22 25 27 28 0
